Maximize
x8
Subject To
4.0 x1 + 3.0 x2 + 19.0 x3 + 9.3 x4 + 22.0 x5 + 5.0 x6 + 5.4 x7 + -x8 = 0
101.0 x1 + 150.0 x2 + 568.0 x3 + 251.0 x4 + 286.0 x5 + 140.0 x6 + 177.0 x7 + -x9 = 0
5.0 x1 + 4.0 x2 + 10.0 x3 + 3.0 x4 + 5.0 x5 + 2.0 x6 + 1.5 x7 + -x10 = 0
x9 >= 2000
x10 <= 20
End